# Solution for model dual_ressource_scheduling
# Objective value = 19
x[0,0,0,0] 0
x[0,0,0,1] 0
x[0,0,0,2] 0
x[0,0,0,3] 0
x[0,0,0,4] 1
x[0,0,0,5] 0
x[0,0,0,6] 0
x[0,0,1,0] 0
x[0,0,1,1] 0
x[0,0,1,2] 0
x[0,0,1,3] 0
x[0,0,1,4] 0
x[0,0,1,5] 0
x[0,0,1,6] 1
x[0,0,2,0] 0
x[0,0,2,1] 0
x[0,0,2,2] 0
x[0,0,2,3] 0
x[0,0,2,4] 0
x[0,0,2,5] 0
x[0,0,2,6] 1
x[0,1,0,0] 0
x[0,1,0,1] 0
x[0,1,0,2] 0
x[0,1,0,3] 0
x[0,1,0,4] 0
x[0,1,0,5] 0
x[0,1,0,6] 1
x[0,1,1,0] 0
x[0,1,1,1] 0
x[0,1,1,2] 0
x[0,1,1,3] 0
x[0,1,1,4] 0
x[0,1,1,5] 0
x[0,1,1,6] 1
x[0,1,2,0] 1
x[0,1,2,1] 0
x[0,1,2,2] 0
x[0,1,2,3] 0
x[0,1,2,4] 0
x[0,1,2,5] 0
x[0,1,2,6] 0
x[1,0,0,0] 0
x[1,0,0,1] 1
x[1,0,0,2] 0
x[1,0,0,3] 0
x[1,0,0,4] 0
x[1,0,0,5] 0
x[1,0,0,6] 0
x[1,0,1,0] 0
x[1,0,1,1] 0
x[1,0,1,2] 0
x[1,0,1,3] 0
x[1,0,1,4] 0
x[1,0,1,5] 0
x[1,0,1,6] 1
x[1,0,2,0] 0
x[1,0,2,1] 0
x[1,0,2,2] 1
x[1,0,2,3] 0
x[1,0,2,4] 0
x[1,0,2,5] 0
x[1,0,2,6] 0
x[1,1,0,0] 0
x[1,1,0,1] 0
x[1,1,0,2] 0
x[1,1,0,3] 0
x[1,1,0,4] 1
x[1,1,0,5] 0
x[1,1,0,6] 0
x[1,1,1,0] 0
x[1,1,1,1] 0
x[1,1,1,2] 0
x[1,1,1,3] 0
x[1,1,1,4] 0
x[1,1,1,5] 1
x[1,1,1,6] 0
x[1,1,2,0] 0
x[1,1,2,1] 0
x[1,1,2,2] 0
x[1,1,2,3] 1
x[1,1,2,4] 0
x[1,1,2,5] 0
x[1,1,2,6] 0
d[0,0,0,0] 0
d[0,0,0,1] 0
d[0,0,0,2] 0
d[0,0,0,3] 0
d[0,0,0,4] 0
d[0,0,0,5] 0
d[0,0,0,6] 0
d[0,0,1,0] 0
d[0,0,1,1] 0
d[0,0,1,2] 0
d[0,0,1,3] 0
d[0,0,1,4] 0
d[0,0,1,5] 0
d[0,0,1,6] 2
d[0,0,2,0] 0
d[0,0,2,1] 0
d[0,0,2,2] 0
d[0,0,2,3] 0
d[0,0,2,4] 0
d[0,0,2,5] 0
d[0,0,2,6] 3
d[0,1,0,0] 0
d[0,1,0,1] 0
d[0,1,0,2] 0
d[0,1,0,3] 0
d[0,1,0,4] 0
d[0,1,0,5] 0
d[0,1,0,6] 16
d[0,1,1,0] 0
d[0,1,1,1] 0
d[0,1,1,2] 0
d[0,1,1,3] 0
d[0,1,1,4] 0
d[0,1,1,5] 0
d[0,1,1,6] 12
d[0,1,2,0] 5
d[0,1,2,1] 0
d[0,1,2,2] 0
d[0,1,2,3] 0
d[0,1,2,4] 0
d[0,1,2,5] 0
d[0,1,2,6] 0
d[1,0,0,0] 0
d[1,0,0,1] 0
d[1,0,0,2] 0
d[1,0,0,3] 0
d[1,0,0,4] 0
d[1,0,0,5] 0
d[1,0,0,6] 0
d[1,0,1,0] 0
d[1,0,1,1] 0
d[1,0,1,2] 0
d[1,0,1,3] 0
d[1,0,1,4] 0
d[1,0,1,5] 0
d[1,0,1,6] 5
d[1,0,2,0] 0
d[1,0,2,1] 0
d[1,0,2,2] 0
d[1,0,2,3] 0
d[1,0,2,4] 0
d[1,0,2,5] 0
d[1,0,2,6] 0
d[1,1,0,0] 0
d[1,1,0,1] 0
d[1,1,0,2] 0
d[1,1,0,3] 0
d[1,1,0,4] 17
d[1,1,0,5] 0
d[1,1,0,6] 0
d[1,1,1,0] 0
d[1,1,1,1] 0
d[1,1,1,2] 0
d[1,1,1,3] 0
d[1,1,1,4] 0
d[1,1,1,5] 10
d[1,1,1,6] 0
d[1,1,2,0] 0
d[1,1,2,1] 0
d[1,1,2,2] 0
d[1,1,2,3] 13
d[1,1,2,4] 0
d[1,1,2,5] 0
d[1,1,2,6] 0
C[0] 19
C[1] 19
C_max 19
delta[0,0,0,0,0,0,0] 0
delta[0,0,0,0,0,0,1] 0
delta[0,0,0,0,0,0,2] 0
delta[0,0,0,0,0,0,3] 0
delta[0,0,0,0,0,0,4] 0
delta[0,0,0,0,0,0,5] 0
delta[0,0,0,0,0,0,6] 0
delta[0,0,0,0,0,1,0] 0
delta[0,0,0,0,0,1,1] 0
delta[0,0,0,0,0,1,2] 0
delta[0,0,0,0,0,1,3] 0
delta[0,0,0,0,0,1,4] 0
delta[0,0,0,0,0,1,5] 0
delta[0,0,0,0,0,1,6] 1
delta[0,0,0,0,0,2,0] 0
delta[0,0,0,0,0,2,1] 0
delta[0,0,0,0,0,2,2] 1
delta[0,0,0,0,0,2,3] 0
delta[0,0,0,0,0,2,4] 0
delta[0,0,0,0,0,2,5] 0
delta[0,0,0,0,0,2,6] 1
delta[0,0,0,0,1,0,0] 0
delta[0,0,0,0,1,0,1] 0
delta[0,0,0,0,1,0,2] 0
delta[0,0,0,0,1,0,3] 0
delta[0,0,0,0,1,0,4] 1
delta[0,0,0,0,1,0,5] 0
delta[0,0,0,0,1,0,6] 0
delta[0,0,0,0,1,1,0] 0
delta[0,0,0,0,1,1,1] 0
delta[0,0,0,0,1,1,2] 0
delta[0,0,0,0,1,1,3] 0
delta[0,0,0,0,1,1,4] 0
delta[0,0,0,0,1,1,5] 0
delta[0,0,0,0,1,1,6] 0
delta[0,0,0,0,1,2,0] 0
delta[0,0,0,0,1,2,1] 0
delta[0,0,0,0,1,2,2] 1
delta[0,0,0,0,1,2,3] 0
delta[0,0,0,0,1,2,4] 0
delta[0,0,0,0,1,2,5] 0
delta[0,0,0,0,1,2,6] 1
delta[0,0,0,0,2,0,0] 0
delta[0,0,0,0,2,0,1] 1
delta[0,0,0,0,2,0,2] 0
delta[0,0,0,0,2,0,3] 1
delta[0,0,0,0,2,0,4] 1
delta[0,0,0,0,2,0,5] 1
delta[0,0,0,0,2,0,6] 0
delta[0,0,0,0,2,1,0] 0
delta[0,0,0,0,2,1,1] 1
delta[0,0,0,0,2,1,2] 0
delta[0,0,0,0,2,1,3] 1
delta[0,0,0,0,2,1,4] 0
delta[0,0,0,0,2,1,5] 1
delta[0,0,0,0,2,1,6] 0
delta[0,0,0,0,2,2,0] 0
delta[0,0,0,0,2,2,1] 0
delta[0,0,0,0,2,2,2] 0
delta[0,0,0,0,2,2,3] 0
delta[0,0,0,0,2,2,4] 0
delta[0,0,0,0,2,2,5] 0
delta[0,0,0,0,2,2,6] 0
delta[0,0,0,1,0,0,0] 1
delta[0,0,0,1,0,0,1] 0
delta[0,0,0,1,0,0,2] 0
delta[0,0,0,1,0,0,3] 0
delta[0,0,0,1,0,0,4] 0
delta[0,0,0,1,0,0,5] 0
delta[0,0,0,1,0,0,6] 1
delta[0,0,0,1,0,1,0] 1
delta[0,0,0,1,0,1,1] 0
delta[0,0,0,1,0,1,2] 1
delta[0,0,0,1,0,1,3] 0
delta[0,0,0,1,0,1,4] 0
delta[0,0,0,1,0,1,5] 0
delta[0,0,0,1,0,1,6] 1
delta[0,0,0,1,0,2,0] 1
delta[0,0,0,1,0,2,1] 0
delta[0,0,0,1,0,2,2] 0
delta[0,0,0,1,0,2,3] 0
delta[0,0,0,1,0,2,4] 0
delta[0,0,0,1,0,2,5] 0
delta[0,0,0,1,0,2,6] 0
delta[0,0,0,1,1,0,0] 1
delta[0,0,0,1,1,0,1] 0
delta[0,0,0,1,1,0,2] 0
delta[0,0,0,1,1,0,3] 0
delta[0,0,0,1,1,0,4] 0
delta[0,0,0,1,1,0,5] 0
delta[0,0,0,1,1,0,6] 1
delta[0,0,0,1,1,1,0] 1
delta[0,0,0,1,1,1,1] 0
delta[0,0,0,1,1,1,2] 1
delta[0,0,0,1,1,1,3] 0
delta[0,0,0,1,1,1,4] 0
delta[0,0,0,1,1,1,5] 0
delta[0,0,0,1,1,1,6] 1
delta[0,0,0,1,1,2,0] 1
delta[0,0,0,1,1,2,1] 0
delta[0,0,0,1,1,2,2] 0
delta[0,0,0,1,1,2,3] 0
delta[0,0,0,1,1,2,4] 0
delta[0,0,0,1,1,2,5] 0
delta[0,0,0,1,1,2,6] 0
delta[0,0,0,1,2,0,0] 1
delta[0,0,0,1,2,0,1] 0
delta[0,0,0,1,2,0,2] 0
delta[0,0,0,1,2,0,3] 0
delta[0,0,0,1,2,0,4] 0
delta[0,0,0,1,2,0,5] 0
delta[0,0,0,1,2,0,6] 1
delta[0,0,0,1,2,1,0] 1
delta[0,0,0,1,2,1,1] 0
delta[0,0,0,1,2,1,2] 1
delta[0,0,0,1,2,1,3] 0
delta[0,0,0,1,2,1,4] 0
delta[0,0,0,1,2,1,5] 0
delta[0,0,0,1,2,1,6] 1
delta[0,0,0,1,2,2,0] 1
delta[0,0,0,1,2,2,1] 0
delta[0,0,0,1,2,2,2] 0
delta[0,0,0,1,2,2,3] 0
delta[0,0,0,1,2,2,4] 0
delta[0,0,0,1,2,2,5] 0
delta[0,0,0,1,2,2,6] 0
delta[0,0,1,0,0,0,0] 0
delta[0,0,1,0,0,0,1] 1
delta[0,0,1,0,0,0,2] 0
delta[0,0,1,0,0,0,3] 0
delta[0,0,1,0,0,0,4] 0
delta[0,0,1,0,0,0,5] 0
delta[0,0,1,0,0,0,6] 0
delta[0,0,1,0,0,1,0] 1
delta[0,0,1,0,0,1,1] 0
delta[0,0,1,0,0,1,2] 0
delta[0,0,1,0,0,1,3] 0
delta[0,0,1,0,0,1,4] 0
delta[0,0,1,0,0,1,5] 0
delta[0,0,1,0,0,1,6] 1
delta[0,0,1,0,0,2,0] 0
delta[0,0,1,0,0,2,1] 0
delta[0,0,1,0,0,2,2] 1
delta[0,0,1,0,0,2,3] 0
delta[0,0,1,0,0,2,4] 0
delta[0,0,1,0,0,2,5] 0
delta[0,0,1,0,0,2,6] 0
delta[0,0,1,0,1,0,0] 0
delta[0,0,1,0,1,0,1] 1
delta[0,0,1,0,1,0,2] 0
delta[0,0,1,0,1,0,3] 0
delta[0,0,1,0,1,0,4] 0
delta[0,0,1,0,1,0,5] 0
delta[0,0,1,0,1,0,6] 0
delta[0,0,1,0,1,1,0] 1
delta[0,0,1,0,1,1,1] 0
delta[0,0,1,0,1,1,2] 0
delta[0,0,1,0,1,1,3] 0
delta[0,0,1,0,1,1,4] 0
delta[0,0,1,0,1,1,5] 0
delta[0,0,1,0,1,1,6] 1
delta[0,0,1,0,1,2,0] 0
delta[0,0,1,0,1,2,1] 0
delta[0,0,1,0,1,2,2] 1
delta[0,0,1,0,1,2,3] 0
delta[0,0,1,0,1,2,4] 0
delta[0,0,1,0,1,2,5] 0
delta[0,0,1,0,1,2,6] 0
delta[0,0,1,0,2,0,0] 0
delta[0,0,1,0,2,0,1] 1
delta[0,0,1,0,2,0,2] 0
delta[0,0,1,0,2,0,3] 1
delta[0,0,1,0,2,0,4] 0
delta[0,0,1,0,2,0,5] 1
delta[0,0,1,0,2,0,6] 0
delta[0,0,1,0,2,1,0] 1
delta[0,0,1,0,2,1,1] 0
delta[0,0,1,0,2,1,2] 0
delta[0,0,1,0,2,1,3] 0
delta[0,0,1,0,2,1,4] 0
delta[0,0,1,0,2,1,5] 0
delta[0,0,1,0,2,1,6] 1
delta[0,0,1,0,2,2,0] 0
delta[0,0,1,0,2,2,1] 0
delta[0,0,1,0,2,2,2] 1
delta[0,0,1,0,2,2,3] 0
delta[0,0,1,0,2,2,4] 0
delta[0,0,1,0,2,2,5] 0
delta[0,0,1,0,2,2,6] 0
delta[0,0,1,1,0,0,0] 0
delta[0,0,1,1,0,0,1] 0
delta[0,0,1,1,0,0,2] 0
delta[0,0,1,1,0,0,3] 0
delta[0,0,1,1,0,0,4] 1
delta[0,0,1,1,0,0,5] 0
delta[0,0,1,1,0,0,6] 0
delta[0,0,1,1,0,1,0] 0
delta[0,0,1,1,0,1,1] 0
delta[0,0,1,1,0,1,2] 0
delta[0,0,1,1,0,1,3] 1
delta[0,0,1,1,0,1,4] 0
delta[0,0,1,1,0,1,5] 1
delta[0,0,1,1,0,1,6] 0
delta[0,0,1,1,0,2,0] 0
delta[0,0,1,1,0,2,1] 0
delta[0,0,1,1,0,2,2] 0
delta[0,0,1,1,0,2,3] 1
delta[0,0,1,1,0,2,4] 0
delta[0,0,1,1,0,2,5] 0
delta[0,0,1,1,0,2,6] 0
delta[0,0,1,1,1,0,0] 0
delta[0,0,1,1,1,0,1] 0
delta[0,0,1,1,1,0,2] 0
delta[0,0,1,1,1,0,3] 0
delta[0,0,1,1,1,0,4] 1
delta[0,0,1,1,1,0,5] 0
delta[0,0,1,1,1,0,6] 0
delta[0,0,1,1,1,1,0] 0
delta[0,0,1,1,1,1,1] 0
delta[0,0,1,1,1,1,2] 0
delta[0,0,1,1,1,1,3] 1
delta[0,0,1,1,1,1,4] 0
delta[0,0,1,1,1,1,5] 1
delta[0,0,1,1,1,1,6] 0
delta[0,0,1,1,1,2,0] 0
delta[0,0,1,1,1,2,1] 0
delta[0,0,1,1,1,2,2] 0
delta[0,0,1,1,1,2,3] 1
delta[0,0,1,1,1,2,4] 0
delta[0,0,1,1,1,2,5] 0
delta[0,0,1,1,1,2,6] 0
delta[0,0,1,1,2,0,0] 0
delta[0,0,1,1,2,0,1] 0
delta[0,0,1,1,2,0,2] 0
delta[0,0,1,1,2,0,3] 0
delta[0,0,1,1,2,0,4] 1
delta[0,0,1,1,2,0,5] 0
delta[0,0,1,1,2,0,6] 0
delta[0,0,1,1,2,1,0] 0
delta[0,0,1,1,2,1,1] 0
delta[0,0,1,1,2,1,2] 0
delta[0,0,1,1,2,1,3] 1
delta[0,0,1,1,2,1,4] 0
delta[0,0,1,1,2,1,5] 1
delta[0,0,1,1,2,1,6] 0
delta[0,0,1,1,2,2,0] 0
delta[0,0,1,1,2,2,1] 0
delta[0,0,1,1,2,2,2] 0
delta[0,0,1,1,2,2,3] 1
delta[0,0,1,1,2,2,4] 0
delta[0,0,1,1,2,2,5] 1
delta[0,0,1,1,2,2,6] 0
delta[0,1,0,0,0,0,0] 0
delta[0,1,0,0,0,0,1] 1
delta[0,1,0,0,0,0,2] 1
delta[0,1,0,0,0,0,3] 1
delta[0,1,0,0,0,0,4] 1
delta[0,1,0,0,0,0,5] 1
delta[0,1,0,0,0,0,6] 0
delta[0,1,0,0,0,1,0] 0
delta[0,1,0,0,0,1,1] 1
delta[0,1,0,0,0,1,2] 1
delta[0,1,0,0,0,1,3] 1
delta[0,1,0,0,0,1,4] 1
delta[0,1,0,0,0,1,5] 1
delta[0,1,0,0,0,1,6] 0
delta[0,1,0,0,0,2,0] 0
delta[0,1,0,0,0,2,1] 0
delta[0,1,0,0,0,2,2] 1
delta[0,1,0,0,0,2,3] 0
delta[0,1,0,0,0,2,4] 1
delta[0,1,0,0,0,2,5] 0
delta[0,1,0,0,0,2,6] 0
delta[0,1,0,0,1,0,0] 0
delta[0,1,0,0,1,0,1] 1
delta[0,1,0,0,1,0,2] 0
delta[0,1,0,0,1,0,3] 1
delta[0,1,0,0,1,0,4] 1
delta[0,1,0,0,1,0,5] 1
delta[0,1,0,0,1,0,6] 0
delta[0,1,0,0,1,1,0] 0
delta[0,1,0,0,1,1,1] 1
delta[0,1,0,0,1,1,2] 0
delta[0,1,0,0,1,1,3] 1
delta[0,1,0,0,1,1,4] 0
delta[0,1,0,0,1,1,5] 1
delta[0,1,0,0,1,1,6] 0
delta[0,1,0,0,1,2,0] 0
delta[0,1,0,0,1,2,1] 0
delta[0,1,0,0,1,2,2] 0
delta[0,1,0,0,1,2,3] 0
delta[0,1,0,0,1,2,4] 0
delta[0,1,0,0,1,2,5] 0
delta[0,1,0,0,1,2,6] 0
delta[0,1,0,0,2,0,0] 0
delta[0,1,0,0,2,0,1] 1
delta[0,1,0,0,2,0,2] 1
delta[0,1,0,0,2,0,3] 1
delta[0,1,0,0,2,0,4] 1
delta[0,1,0,0,2,0,5] 1
delta[0,1,0,0,2,0,6] 0
delta[0,1,0,0,2,1,0] 0
delta[0,1,0,0,2,1,1] 1
delta[0,1,0,0,2,1,2] 1
delta[0,1,0,0,2,1,3] 1
delta[0,1,0,0,2,1,4] 1
delta[0,1,0,0,2,1,5] 1
delta[0,1,0,0,2,1,6] 1
delta[0,1,0,0,2,2,0] 0
delta[0,1,0,0,2,2,1] 0
delta[0,1,0,0,2,2,2] 1
delta[0,1,0,0,2,2,3] 0
delta[0,1,0,0,2,2,4] 1
delta[0,1,0,0,2,2,5] 0
delta[0,1,0,0,2,2,6] 1
delta[0,1,0,1,0,0,0] 0
delta[0,1,0,1,0,0,1] 0
delta[0,1,0,1,0,0,2] 0
delta[0,1,0,1,0,0,3] 0
delta[0,1,0,1,0,0,4] 0
delta[0,1,0,1,0,0,5] 0
delta[0,1,0,1,0,0,6] 0
delta[0,1,0,1,0,1,0] 0
delta[0,1,0,1,0,1,1] 0
delta[0,1,0,1,0,1,2] 1
delta[0,1,0,1,0,1,3] 0
delta[0,1,0,1,0,1,4] 1
delta[0,1,0,1,0,1,5] 0
delta[0,1,0,1,0,1,6] 0
delta[0,1,0,1,0,2,0] 1
delta[0,1,0,1,0,2,1] 0
delta[0,1,0,1,0,2,2] 0
delta[0,1,0,1,0,2,3] 0
delta[0,1,0,1,0,2,4] 0
delta[0,1,0,1,0,2,5] 0
delta[0,1,0,1,0,2,6] 0
delta[0,1,0,1,1,0,0] 1
delta[0,1,0,1,1,0,1] 0
delta[0,1,0,1,1,0,2] 0
delta[0,1,0,1,1,0,3] 0
delta[0,1,0,1,1,0,4] 0
delta[0,1,0,1,1,0,5] 0
delta[0,1,0,1,1,0,6] 1
delta[0,1,0,1,1,1,0] 0
delta[0,1,0,1,1,1,1] 0
delta[0,1,0,1,1,1,2] 0
delta[0,1,0,1,1,1,3] 0
delta[0,1,0,1,1,1,4] 0
delta[0,1,0,1,1,1,5] 0
delta[0,1,0,1,1,1,6] 0
delta[0,1,0,1,1,2,0] 1
delta[0,1,0,1,1,2,1] 0
delta[0,1,0,1,1,2,2] 0
delta[0,1,0,1,1,2,3] 0
delta[0,1,0,1,1,2,4] 0
delta[0,1,0,1,1,2,5] 0
delta[0,1,0,1,1,2,6] 0
delta[0,1,0,1,2,0,0] 0
delta[0,1,0,1,2,0,1] 0
delta[0,1,0,1,2,0,2] 0
delta[0,1,0,1,2,0,3] 0
delta[0,1,0,1,2,0,4] 0
delta[0,1,0,1,2,0,5] 0
delta[0,1,0,1,2,0,6] 1
delta[0,1,0,1,2,1,0] 0
delta[0,1,0,1,2,1,1] 0
delta[0,1,0,1,2,1,2] 1
delta[0,1,0,1,2,1,3] 0
delta[0,1,0,1,2,1,4] 1
delta[0,1,0,1,2,1,5] 0
delta[0,1,0,1,2,1,6] 1
delta[0,1,0,1,2,2,0] 0
delta[0,1,0,1,2,2,1] 0
delta[0,1,0,1,2,2,2] 0
delta[0,1,0,1,2,2,3] 0
delta[0,1,0,1,2,2,4] 0
delta[0,1,0,1,2,2,5] 0
delta[0,1,0,1,2,2,6] 0
delta[0,1,1,0,0,0,0] 0
delta[0,1,1,0,0,0,1] 1
delta[0,1,1,0,0,0,2] 1
delta[0,1,1,0,0,0,3] 1
delta[0,1,1,0,0,0,4] 1
delta[0,1,1,0,0,0,5] 1
delta[0,1,1,0,0,0,6] 0
delta[0,1,1,0,0,1,0] 1
delta[0,1,1,0,0,1,1] 0
delta[0,1,1,0,0,1,2] 0
delta[0,1,1,0,0,1,3] 0
delta[0,1,1,0,0,1,4] 0
delta[0,1,1,0,0,1,5] 0
delta[0,1,1,0,0,1,6] 0
delta[0,1,1,0,0,2,0] 0
delta[0,1,1,0,0,2,1] 0
delta[0,1,1,0,0,2,2] 1
delta[0,1,1,0,0,2,3] 0
delta[0,1,1,0,0,2,4] 1
delta[0,1,1,0,0,2,5] 0
delta[0,1,1,0,0,2,6] 0
delta[0,1,1,0,1,0,0] 0
delta[0,1,1,0,1,0,1] 1
delta[0,1,1,0,1,0,2] 0
delta[0,1,1,0,1,0,3] 1
delta[0,1,1,0,1,0,4] 0
delta[0,1,1,0,1,0,5] 1
delta[0,1,1,0,1,0,6] 0
delta[0,1,1,0,1,1,0] 1
delta[0,1,1,0,1,1,1] 0
delta[0,1,1,0,1,1,2] 0
delta[0,1,1,0,1,1,3] 0
delta[0,1,1,0,1,1,4] 0
delta[0,1,1,0,1,1,5] 0
delta[0,1,1,0,1,1,6] 0
delta[0,1,1,0,1,2,0] 0
delta[0,1,1,0,1,2,1] 0
delta[0,1,1,0,1,2,2] 1
delta[0,1,1,0,1,2,3] 0
delta[0,1,1,0,1,2,4] 0
delta[0,1,1,0,1,2,5] 0
delta[0,1,1,0,1,2,6] 0
delta[0,1,1,0,2,0,0] 0
delta[0,1,1,0,2,0,1] 1
delta[0,1,1,0,2,0,2] 1
delta[0,1,1,0,2,0,3] 1
delta[0,1,1,0,2,0,4] 1
delta[0,1,1,0,2,0,5] 1
delta[0,1,1,0,2,0,6] 0
delta[0,1,1,0,2,1,0] 0
delta[0,1,1,0,2,1,1] 0
delta[0,1,1,0,2,1,2] 0
delta[0,1,1,0,2,1,3] 0
delta[0,1,1,0,2,1,4] 0
delta[0,1,1,0,2,1,5] 0
delta[0,1,1,0,2,1,6] 1
delta[0,1,1,0,2,2,0] 0
delta[0,1,1,0,2,2,1] 0
delta[0,1,1,0,2,2,2] 1
delta[0,1,1,0,2,2,3] 0
delta[0,1,1,0,2,2,4] 1
delta[0,1,1,0,2,2,5] 0
delta[0,1,1,0,2,2,6] 0
delta[0,1,1,1,0,0,0] 0
delta[0,1,1,1,0,0,1] 0
delta[0,1,1,1,0,0,2] 1
delta[0,1,1,1,0,0,3] 0
delta[0,1,1,1,0,0,4] 1
delta[0,1,1,1,0,0,5] 0
delta[0,1,1,1,0,0,6] 0
delta[0,1,1,1,0,1,0] 0
delta[0,1,1,1,0,1,1] 0
delta[0,1,1,1,0,1,2] 1
delta[0,1,1,1,0,1,3] 1
delta[0,1,1,1,0,1,4] 1
delta[0,1,1,1,0,1,5] 1
delta[0,1,1,1,0,1,6] 0
delta[0,1,1,1,0,2,0] 0
delta[0,1,1,1,0,2,1] 0
delta[0,1,1,1,0,2,2] 1
delta[0,1,1,1,0,2,3] 1
delta[0,1,1,1,0,2,4] 1
delta[0,1,1,1,0,2,5] 1
delta[0,1,1,1,0,2,6] 0
delta[0,1,1,1,1,0,0] 0
delta[0,1,1,1,1,0,1] 0
delta[0,1,1,1,1,0,2] 0
delta[0,1,1,1,1,0,3] 0
delta[0,1,1,1,1,0,4] 1
delta[0,1,1,1,1,0,5] 0
delta[0,1,1,1,1,0,6] 0
delta[0,1,1,1,1,1,0] 0
delta[0,1,1,1,1,1,1] 0
delta[0,1,1,1,1,1,2] 0
delta[0,1,1,1,1,1,3] 1
delta[0,1,1,1,1,1,4] 0
delta[0,1,1,1,1,1,5] 1
delta[0,1,1,1,1,1,6] 0
delta[0,1,1,1,1,2,0] 0
delta[0,1,1,1,1,2,1] 0
delta[0,1,1,1,1,2,2] 0
delta[0,1,1,1,1,2,3] 1
delta[0,1,1,1,1,2,4] 0
delta[0,1,1,1,1,2,5] 1
delta[0,1,1,1,1,2,6] 0
delta[0,1,1,1,2,0,0] 0
delta[0,1,1,1,2,0,1] 0
delta[0,1,1,1,2,0,2] 1
delta[0,1,1,1,2,0,3] 0
delta[0,1,1,1,2,0,4] 1
delta[0,1,1,1,2,0,5] 0
delta[0,1,1,1,2,0,6] 0
delta[0,1,1,1,2,1,0] 0
delta[0,1,1,1,2,1,1] 0
delta[0,1,1,1,2,1,2] 1
delta[0,1,1,1,2,1,3] 1
delta[0,1,1,1,2,1,4] 1
delta[0,1,1,1,2,1,5] 1
delta[0,1,1,1,2,1,6] 0
delta[0,1,1,1,2,2,0] 0
delta[0,1,1,1,2,2,1] 0
delta[0,1,1,1,2,2,2] 1
delta[0,1,1,1,2,2,3] 1
delta[0,1,1,1,2,2,4] 1
delta[0,1,1,1,2,2,5] 1
delta[0,1,1,1,2,2,6] 0
delta[1,0,0,0,0,0,0] 0
delta[1,0,0,0,0,0,1] 0
delta[1,0,0,0,0,0,2] 0
delta[1,0,0,0,0,0,3] 0
delta[1,0,0,0,0,0,4] 1
delta[1,0,0,0,0,0,5] 0
delta[1,0,0,0,0,0,6] 0
delta[1,0,0,0,0,1,0] 0
delta[1,0,0,0,0,1,1] 0
delta[1,0,0,0,0,1,2] 0
delta[1,0,0,0,0,1,3] 0
delta[1,0,0,0,0,1,4] 0
delta[1,0,0,0,0,1,5] 0
delta[1,0,0,0,0,1,6] 1
delta[1,0,0,0,0,2,0] 0
delta[1,0,0,0,0,2,1] 0
delta[1,0,0,0,0,2,2] 1
delta[1,0,0,0,0,2,3] 0
delta[1,0,0,0,0,2,4] 0
delta[1,0,0,0,0,2,5] 0
delta[1,0,0,0,0,2,6] 1
delta[1,0,0,0,1,0,0] 0
delta[1,0,0,0,1,0,1] 1
delta[1,0,0,0,1,0,2] 1
delta[1,0,0,0,1,0,3] 1
delta[1,0,0,0,1,0,4] 1
delta[1,0,0,0,1,0,5] 1
delta[1,0,0,0,1,0,6] 0
delta[1,0,0,0,1,1,0] 0
delta[1,0,0,0,1,1,1] 1
delta[1,0,0,0,1,1,2] 1
delta[1,0,0,0,1,1,3] 1
delta[1,0,0,0,1,1,4] 1
delta[1,0,0,0,1,1,5] 1
delta[1,0,0,0,1,1,6] 0
delta[1,0,0,0,1,2,0] 0
delta[1,0,0,0,1,2,1] 0
delta[1,0,0,0,1,2,2] 1
delta[1,0,0,0,1,2,3] 0
delta[1,0,0,0,1,2,4] 1
delta[1,0,0,0,1,2,5] 0
delta[1,0,0,0,1,2,6] 0
delta[1,0,0,0,2,0,0] 0
delta[1,0,0,0,2,0,1] 1
delta[1,0,0,0,2,0,2] 0
delta[1,0,0,0,2,0,3] 1
delta[1,0,0,0,2,0,4] 1
delta[1,0,0,0,2,0,5] 1
delta[1,0,0,0,2,0,6] 0
delta[1,0,0,0,2,1,0] 0
delta[1,0,0,0,2,1,1] 1
delta[1,0,0,0,2,1,2] 0
delta[1,0,0,0,2,1,3] 1
delta[1,0,0,0,2,1,4] 0
delta[1,0,0,0,2,1,5] 1
delta[1,0,0,0,2,1,6] 1
delta[1,0,0,0,2,2,0] 0
delta[1,0,0,0,2,2,1] 0
delta[1,0,0,0,2,2,2] 0
delta[1,0,0,0,2,2,3] 0
delta[1,0,0,0,2,2,4] 0
delta[1,0,0,0,2,2,5] 0
delta[1,0,0,0,2,2,6] 1
delta[1,0,0,1,0,0,0] 1
delta[1,0,0,1,0,0,1] 0
delta[1,0,0,1,0,0,2] 0
delta[1,0,0,1,0,0,3] 0
delta[1,0,0,1,0,0,4] 0
delta[1,0,0,1,0,0,5] 0
delta[1,0,0,1,0,0,6] 1
delta[1,0,0,1,0,1,0] 1
delta[1,0,0,1,0,1,1] 0
delta[1,0,0,1,0,1,2] 1
delta[1,0,0,1,0,1,3] 0
delta[1,0,0,1,0,1,4] 0
delta[1,0,0,1,0,1,5] 0
delta[1,0,0,1,0,1,6] 1
delta[1,0,0,1,0,2,0] 1
delta[1,0,0,1,0,2,1] 0
delta[1,0,0,1,0,2,2] 0
delta[1,0,0,1,0,2,3] 0
delta[1,0,0,1,0,2,4] 0
delta[1,0,0,1,0,2,5] 0
delta[1,0,0,1,0,2,6] 0
delta[1,0,0,1,1,0,0] 0
delta[1,0,0,1,1,0,1] 0
delta[1,0,0,1,1,0,2] 0
delta[1,0,0,1,1,0,3] 0
delta[1,0,0,1,1,0,4] 0
delta[1,0,0,1,1,0,5] 0
delta[1,0,0,1,1,0,6] 1
delta[1,0,0,1,1,1,0] 0
delta[1,0,0,1,1,1,1] 0
delta[1,0,0,1,1,1,2] 1
delta[1,0,0,1,1,1,3] 0
delta[1,0,0,1,1,1,4] 1
delta[1,0,0,1,1,1,5] 0
delta[1,0,0,1,1,1,6] 1
delta[1,0,0,1,1,2,0] 1
delta[1,0,0,1,1,2,1] 0
delta[1,0,0,1,1,2,2] 0
delta[1,0,0,1,1,2,3] 0
delta[1,0,0,1,1,2,4] 0
delta[1,0,0,1,1,2,5] 0
delta[1,0,0,1,1,2,6] 0
delta[1,0,0,1,2,0,0] 1
delta[1,0,0,1,2,0,1] 0
delta[1,0,0,1,2,0,2] 0
delta[1,0,0,1,2,0,3] 0
delta[1,0,0,1,2,0,4] 0
delta[1,0,0,1,2,0,5] 0
delta[1,0,0,1,2,0,6] 1
delta[1,0,0,1,2,1,0] 1
delta[1,0,0,1,2,1,1] 0
delta[1,0,0,1,2,1,2] 0
delta[1,0,0,1,2,1,3] 0
delta[1,0,0,1,2,1,4] 0
delta[1,0,0,1,2,1,5] 0
delta[1,0,0,1,2,1,6] 1
delta[1,0,0,1,2,2,0] 1
delta[1,0,0,1,2,2,1] 0
delta[1,0,0,1,2,2,2] 0
delta[1,0,0,1,2,2,3] 0
delta[1,0,0,1,2,2,4] 0
delta[1,0,0,1,2,2,5] 0
delta[1,0,0,1,2,2,6] 0
delta[1,0,1,0,0,0,0] 0
delta[1,0,1,0,0,0,1] 0
delta[1,0,1,0,0,0,2] 0
delta[1,0,1,0,0,0,3] 0
delta[1,0,1,0,0,0,4] 0
delta[1,0,1,0,0,0,5] 0
delta[1,0,1,0,0,0,6] 0
delta[1,0,1,0,0,1,0] 1
delta[1,0,1,0,0,1,1] 0
delta[1,0,1,0,0,1,2] 0
delta[1,0,1,0,0,1,3] 0
delta[1,0,1,0,0,1,4] 0
delta[1,0,1,0,0,1,5] 0
delta[1,0,1,0,0,1,6] 1
delta[1,0,1,0,0,2,0] 0
delta[1,0,1,0,0,2,1] 0
delta[1,0,1,0,0,2,2] 1
delta[1,0,1,0,0,2,3] 0
delta[1,0,1,0,0,2,4] 0
delta[1,0,1,0,0,2,5] 0
delta[1,0,1,0,0,2,6] 0
delta[1,0,1,0,1,0,0] 0
delta[1,0,1,0,1,0,1] 1
delta[1,0,1,0,1,0,2] 1
delta[1,0,1,0,1,0,3] 1
delta[1,0,1,0,1,0,4] 1
delta[1,0,1,0,1,0,5] 1
delta[1,0,1,0,1,0,6] 0
delta[1,0,1,0,1,1,0] 0
delta[1,0,1,0,1,1,1] 0
delta[1,0,1,0,1,1,2] 0
delta[1,0,1,0,1,1,3] 0
delta[1,0,1,0,1,1,4] 0
delta[1,0,1,0,1,1,5] 0
delta[1,0,1,0,1,1,6] 0
delta[1,0,1,0,1,2,0] 0
delta[1,0,1,0,1,2,1] 0
delta[1,0,1,0,1,2,2] 1
delta[1,0,1,0,1,2,3] 0
delta[1,0,1,0,1,2,4] 1
delta[1,0,1,0,1,2,5] 0
delta[1,0,1,0,1,2,6] 0
delta[1,0,1,0,2,0,0] 0
delta[1,0,1,0,2,0,1] 1
delta[1,0,1,0,2,0,2] 0
delta[1,0,1,0,2,0,3] 1
delta[1,0,1,0,2,0,4] 0
delta[1,0,1,0,2,0,5] 1
delta[1,0,1,0,2,0,6] 0
delta[1,0,1,0,2,1,0] 1
delta[1,0,1,0,2,1,1] 0
delta[1,0,1,0,2,1,2] 0
delta[1,0,1,0,2,1,3] 0
delta[1,0,1,0,2,1,4] 0
delta[1,0,1,0,2,1,5] 0
delta[1,0,1,0,2,1,6] 1
delta[1,0,1,0,2,2,0] 0
delta[1,0,1,0,2,2,1] 0
delta[1,0,1,0,2,2,2] 0
delta[1,0,1,0,2,2,3] 0
delta[1,0,1,0,2,2,4] 0
delta[1,0,1,0,2,2,5] 0
delta[1,0,1,0,2,2,6] 0
delta[1,0,1,1,0,0,0] 0
delta[1,0,1,1,0,0,1] 0
delta[1,0,1,1,0,0,2] 0
delta[1,0,1,1,0,0,3] 0
delta[1,0,1,1,0,0,4] 1
delta[1,0,1,1,0,0,5] 0
delta[1,0,1,1,0,0,6] 0
delta[1,0,1,1,0,1,0] 0
delta[1,0,1,1,0,1,1] 0
delta[1,0,1,1,0,1,2] 0
delta[1,0,1,1,0,1,3] 1
delta[1,0,1,1,0,1,4] 0
delta[1,0,1,1,0,1,5] 1
delta[1,0,1,1,0,1,6] 0
delta[1,0,1,1,0,2,0] 0
delta[1,0,1,1,0,2,1] 0
delta[1,0,1,1,0,2,2] 0
delta[1,0,1,1,0,2,3] 1
delta[1,0,1,1,0,2,4] 0
delta[1,0,1,1,0,2,5] 0
delta[1,0,1,1,0,2,6] 0
delta[1,0,1,1,1,0,0] 0
delta[1,0,1,1,1,0,1] 0
delta[1,0,1,1,1,0,2] 1
delta[1,0,1,1,1,0,3] 0
delta[1,0,1,1,1,0,4] 1
delta[1,0,1,1,1,0,5] 0
delta[1,0,1,1,1,0,6] 0
delta[1,0,1,1,1,1,0] 0
delta[1,0,1,1,1,1,1] 0
delta[1,0,1,1,1,1,2] 1
delta[1,0,1,1,1,1,3] 1
delta[1,0,1,1,1,1,4] 1
delta[1,0,1,1,1,1,5] 1
delta[1,0,1,1,1,1,6] 0
delta[1,0,1,1,1,2,0] 0
delta[1,0,1,1,1,2,1] 0
delta[1,0,1,1,1,2,2] 1
delta[1,0,1,1,1,2,3] 1
delta[1,0,1,1,1,2,4] 1
delta[1,0,1,1,1,2,5] 1
delta[1,0,1,1,1,2,6] 0
delta[1,0,1,1,2,0,0] 0
delta[1,0,1,1,2,0,1] 0
delta[1,0,1,1,2,0,2] 0
delta[1,0,1,1,2,0,3] 0
delta[1,0,1,1,2,0,4] 1
delta[1,0,1,1,2,0,5] 0
delta[1,0,1,1,2,0,6] 0
delta[1,0,1,1,2,1,0] 0
delta[1,0,1,1,2,1,1] 0
delta[1,0,1,1,2,1,2] 0
delta[1,0,1,1,2,1,3] 1
delta[1,0,1,1,2,1,4] 0
delta[1,0,1,1,2,1,5] 1
delta[1,0,1,1,2,1,6] 0
delta[1,0,1,1,2,2,0] 0
delta[1,0,1,1,2,2,1] 0
delta[1,0,1,1,2,2,2] 0
delta[1,0,1,1,2,2,3] 1
delta[1,0,1,1,2,2,4] 0
delta[1,0,1,1,2,2,5] 1
delta[1,0,1,1,2,2,6] 0
delta[1,1,0,0,0,0,0] 0
delta[1,1,0,0,0,0,1] 1
delta[1,1,0,0,0,0,2] 0
delta[1,1,0,0,0,0,3] 1
delta[1,1,0,0,0,0,4] 0
delta[1,1,0,0,0,0,5] 1
delta[1,1,0,0,0,0,6] 0
delta[1,1,0,0,0,1,0] 0
delta[1,1,0,0,0,1,1] 1
delta[1,1,0,0,0,1,2] 0
delta[1,1,0,0,0,1,3] 1
delta[1,1,0,0,0,1,4] 0
delta[1,1,0,0,0,1,5] 1
delta[1,1,0,0,0,1,6] 1
delta[1,1,0,0,0,2,0] 0
delta[1,1,0,0,0,2,1] 0
delta[1,1,0,0,0,2,2] 1
delta[1,1,0,0,0,2,3] 0
delta[1,1,0,0,0,2,4] 0
delta[1,1,0,0,0,2,5] 0
delta[1,1,0,0,0,2,6] 1
delta[1,1,0,0,1,0,0] 0
delta[1,1,0,0,1,0,1] 1
delta[1,1,0,0,1,0,2] 0
delta[1,1,0,0,1,0,3] 0
delta[1,1,0,0,1,0,4] 1
delta[1,1,0,0,1,0,5] 0
delta[1,1,0,0,1,0,6] 0
delta[1,1,0,0,1,1,0] 0
delta[1,1,0,0,1,1,1] 1
delta[1,1,0,0,1,1,2] 0
delta[1,1,0,0,1,1,3] 0
delta[1,1,0,0,1,1,4] 0
delta[1,1,0,0,1,1,5] 0
delta[1,1,0,0,1,1,6] 1
delta[1,1,0,0,1,2,0] 0
delta[1,1,0,0,1,2,1] 0
delta[1,1,0,0,1,2,2] 1
delta[1,1,0,0,1,2,3] 0
delta[1,1,0,0,1,2,4] 0
delta[1,1,0,0,1,2,5] 0
delta[1,1,0,0,1,2,6] 1
delta[1,1,0,0,2,0,0] 0
delta[1,1,0,0,2,0,1] 1
delta[1,1,0,0,2,0,2] 0
delta[1,1,0,0,2,0,3] 0
delta[1,1,0,0,2,0,4] 1
delta[1,1,0,0,2,0,5] 0
delta[1,1,0,0,2,0,6] 0
delta[1,1,0,0,2,1,0] 0
delta[1,1,0,0,2,1,1] 1
delta[1,1,0,0,2,1,2] 0
delta[1,1,0,0,2,1,3] 0
delta[1,1,0,0,2,1,4] 0
delta[1,1,0,0,2,1,5] 0
delta[1,1,0,0,2,1,6] 1
delta[1,1,0,0,2,2,0] 0
delta[1,1,0,0,2,2,1] 0
delta[1,1,0,0,2,2,2] 1
delta[1,1,0,0,2,2,3] 0
delta[1,1,0,0,2,2,4] 0
delta[1,1,0,0,2,2,5] 0
delta[1,1,0,0,2,2,6] 1
delta[1,1,0,1,0,0,0] 1
delta[1,1,0,1,0,0,1] 0
delta[1,1,0,1,0,0,2] 0
delta[1,1,0,1,0,0,3] 0
delta[1,1,0,1,0,0,4] 0
delta[1,1,0,1,0,0,5] 0
delta[1,1,0,1,0,0,6] 1
delta[1,1,0,1,0,1,0] 1
delta[1,1,0,1,0,1,1] 0
delta[1,1,0,1,0,1,2] 1
delta[1,1,0,1,0,1,3] 0
delta[1,1,0,1,0,1,4] 0
delta[1,1,0,1,0,1,5] 0
delta[1,1,0,1,0,1,6] 1
delta[1,1,0,1,0,2,0] 1
delta[1,1,0,1,0,2,1] 0
delta[1,1,0,1,0,2,2] 0
delta[1,1,0,1,0,2,3] 0
delta[1,1,0,1,0,2,4] 0
delta[1,1,0,1,0,2,5] 0
delta[1,1,0,1,0,2,6] 1
delta[1,1,0,1,1,0,0] 1
delta[1,1,0,1,1,0,1] 0
delta[1,1,0,1,1,0,2] 0
delta[1,1,0,1,1,0,3] 0
delta[1,1,0,1,1,0,4] 0
delta[1,1,0,1,1,0,5] 0
delta[1,1,0,1,1,0,6] 1
delta[1,1,0,1,1,1,0] 1
delta[1,1,0,1,1,1,1] 0
delta[1,1,0,1,1,1,2] 0
delta[1,1,0,1,1,1,3] 0
delta[1,1,0,1,1,1,4] 0
delta[1,1,0,1,1,1,5] 0
delta[1,1,0,1,1,1,6] 1
delta[1,1,0,1,1,2,0] 1
delta[1,1,0,1,1,2,1] 0
delta[1,1,0,1,1,2,2] 0
delta[1,1,0,1,1,2,3] 0
delta[1,1,0,1,1,2,4] 0
delta[1,1,0,1,1,2,5] 0
delta[1,1,0,1,1,2,6] 1
delta[1,1,0,1,2,0,0] 1
delta[1,1,0,1,2,0,1] 0
delta[1,1,0,1,2,0,2] 0
delta[1,1,0,1,2,0,3] 0
delta[1,1,0,1,2,0,4] 0
delta[1,1,0,1,2,0,5] 0
delta[1,1,0,1,2,0,6] 1
delta[1,1,0,1,2,1,0] 1
delta[1,1,0,1,2,1,1] 0
delta[1,1,0,1,2,1,2] 1
delta[1,1,0,1,2,1,3] 0
delta[1,1,0,1,2,1,4] 0
delta[1,1,0,1,2,1,5] 0
delta[1,1,0,1,2,1,6] 1
delta[1,1,0,1,2,2,0] 1
delta[1,1,0,1,2,2,1] 0
delta[1,1,0,1,2,2,2] 0
delta[1,1,0,1,2,2,3] 0
delta[1,1,0,1,2,2,4] 0
delta[1,1,0,1,2,2,5] 0
delta[1,1,0,1,2,2,6] 1
delta[1,1,1,0,0,0,0] 0
delta[1,1,1,0,0,0,1] 1
delta[1,1,1,0,0,0,2] 0
delta[1,1,1,0,0,0,3] 1
delta[1,1,1,0,0,0,4] 0
delta[1,1,1,0,0,0,5] 1
delta[1,1,1,0,0,0,6] 0
delta[1,1,1,0,0,1,0] 1
delta[1,1,1,0,0,1,1] 0
delta[1,1,1,0,0,1,2] 0
delta[1,1,1,0,0,1,3] 0
delta[1,1,1,0,0,1,4] 0
delta[1,1,1,0,0,1,5] 0
delta[1,1,1,0,0,1,6] 1
delta[1,1,1,0,0,2,0] 1
delta[1,1,1,0,0,2,1] 0
delta[1,1,1,0,0,2,2] 1
delta[1,1,1,0,0,2,3] 0
delta[1,1,1,0,0,2,4] 0
delta[1,1,1,0,0,2,5] 0
delta[1,1,1,0,0,2,6] 0
delta[1,1,1,0,1,0,0] 0
delta[1,1,1,0,1,0,1] 1
delta[1,1,1,0,1,0,2] 0
delta[1,1,1,0,1,0,3] 0
delta[1,1,1,0,1,0,4] 0
delta[1,1,1,0,1,0,5] 0
delta[1,1,1,0,1,0,6] 0
delta[1,1,1,0,1,1,0] 1
delta[1,1,1,0,1,1,1] 0
delta[1,1,1,0,1,1,2] 0
delta[1,1,1,0,1,1,3] 0
delta[1,1,1,0,1,1,4] 0
delta[1,1,1,0,1,1,5] 0
delta[1,1,1,0,1,1,6] 1
delta[1,1,1,0,1,2,0] 1
delta[1,1,1,0,1,2,1] 0
delta[1,1,1,0,1,2,2] 1
delta[1,1,1,0,1,2,3] 0
delta[1,1,1,0,1,2,4] 0
delta[1,1,1,0,1,2,5] 0
delta[1,1,1,0,1,2,6] 0
delta[1,1,1,0,2,0,0] 0
delta[1,1,1,0,2,0,1] 1
delta[1,1,1,0,2,0,2] 0
delta[1,1,1,0,2,0,3] 0
delta[1,1,1,0,2,0,4] 0
delta[1,1,1,0,2,0,5] 0
delta[1,1,1,0,2,0,6] 0
delta[1,1,1,0,2,1,0] 1
delta[1,1,1,0,2,1,1] 0
delta[1,1,1,0,2,1,2] 0
delta[1,1,1,0,2,1,3] 0
delta[1,1,1,0,2,1,4] 0
delta[1,1,1,0,2,1,5] 0
delta[1,1,1,0,2,1,6] 1
delta[1,1,1,0,2,2,0] 1
delta[1,1,1,0,2,2,1] 0
delta[1,1,1,0,2,2,2] 1
delta[1,1,1,0,2,2,3] 0
delta[1,1,1,0,2,2,4] 0
delta[1,1,1,0,2,2,5] 0
delta[1,1,1,0,2,2,6] 0
delta[1,1,1,1,0,0,0] 0
delta[1,1,1,1,0,0,1] 0
delta[1,1,1,1,0,0,2] 0
delta[1,1,1,1,0,0,3] 0
delta[1,1,1,1,0,0,4] 0
delta[1,1,1,1,0,0,5] 0
delta[1,1,1,1,0,0,6] 0
delta[1,1,1,1,0,1,0] 0
delta[1,1,1,1,0,1,1] 0
delta[1,1,1,1,0,1,2] 1
delta[1,1,1,1,0,1,3] 1
delta[1,1,1,1,0,1,4] 0
delta[1,1,1,1,0,1,5] 1
delta[1,1,1,1,0,1,6] 0
delta[1,1,1,1,0,2,0] 1
delta[1,1,1,1,0,2,1] 0
delta[1,1,1,1,0,2,2] 0
delta[1,1,1,1,0,2,3] 1
delta[1,1,1,1,0,2,4] 0
delta[1,1,1,1,0,2,5] 1
delta[1,1,1,1,0,2,6] 0
delta[1,1,1,1,1,0,0] 0
delta[1,1,1,1,1,0,1] 0
delta[1,1,1,1,1,0,2] 0
delta[1,1,1,1,1,0,3] 0
delta[1,1,1,1,1,0,4] 1
delta[1,1,1,1,1,0,5] 0
delta[1,1,1,1,1,0,6] 0
delta[1,1,1,1,1,1,0] 0
delta[1,1,1,1,1,1,1] 0
delta[1,1,1,1,1,1,2] 0
delta[1,1,1,1,1,1,3] 0
delta[1,1,1,1,1,1,4] 0
delta[1,1,1,1,1,1,5] 0
delta[1,1,1,1,1,1,6] 0
delta[1,1,1,1,1,2,0] 1
delta[1,1,1,1,1,2,1] 0
delta[1,1,1,1,1,2,2] 0
delta[1,1,1,1,1,2,3] 1
delta[1,1,1,1,1,2,4] 0
delta[1,1,1,1,1,2,5] 0
delta[1,1,1,1,1,2,6] 0
delta[1,1,1,1,2,0,0] 0
delta[1,1,1,1,2,0,1] 0
delta[1,1,1,1,2,0,2] 0
delta[1,1,1,1,2,0,3] 0
delta[1,1,1,1,2,0,4] 1
delta[1,1,1,1,2,0,5] 0
delta[1,1,1,1,2,0,6] 0
delta[1,1,1,1,2,1,0] 0
delta[1,1,1,1,2,1,1] 0
delta[1,1,1,1,2,1,2] 1
delta[1,1,1,1,2,1,3] 0
delta[1,1,1,1,2,1,4] 1
delta[1,1,1,1,2,1,5] 1
delta[1,1,1,1,2,1,6] 0
delta[1,1,1,1,2,2,0] 0
delta[1,1,1,1,2,2,1] 0
delta[1,1,1,1,2,2,2] 0
delta[1,1,1,1,2,2,3] 0
delta[1,1,1,1,2,2,4] 0
delta[1,1,1,1,2,2,5] 0
delta[1,1,1,1,2,2,6] 0
